p cnf 256 1959
249 0
66 0
227 0
84 0
197 0
46 0
247 0
-1 -57 0
-2 -58 0
-3 -59 0
-4 -60 0
-5 -61 0
-6 -62 0
-7 -63 0
-8 -64 0
-1 -33 0
-2 -34 0
-3 -35 0
-4 -36 0
-5 -37 0
-6 -38 0
-7 -39 0
-8 -40 0
-1 -209 0
-2 -210 0
-3 -211 0
-4 -212 0
-5 -213 0
-6 -214 0
-7 -215 0
-8 -216 0
-1 -113 0
-2 -114 0
-3 -115 0
-4 -116 0
-5 -117 0
-6 -118 0
-7 -119 0
-8 -120 0
-1 -25 0
-2 -26 0
-3 -27 0
-4 -28 0
-5 -29 0
-6 -30 0
-7 -31 0
-8 -32 0
-1 -137 0
-2 -138 0
-3 -139 0
-4 -140 0
-5 -141 0
-6 -142 0
-7 -143 0
-8 -144 0
-1 -89 0
-2 -90 0
-3 -91 0
-4 -92 0
-5 -93 0
-6 -94 0
-7 -95 0
-8 -96 0
-1 -105 0
-2 -106 0
-3 -107 0
-4 -108 0
-5 -109 0
-6 -110 0
-7 -111 0
-8 -112 0
-1 -185 0
-2 -186 0
-3 -187 0
-4 -188 0
-5 -189 0
-6 -190 0
-7 -191 0
-8 -192 0
-1 -9 0
-2 -10 0
-3 -11 0
-4 -12 0
-5 -13 0
-6 -14 0
-7 -15 0
-8 -16 0
-1 -177 0
-2 -178 0
-3 -179 0
-4 -180 0
-5 -181 0
-6 -182 0
-7 -183 0
-8 -184 0
-1 -161 0
-2 -162 0
-3 -163 0
-4 -164 0
-5 -165 0
-6 -166 0
-7 -167 0
-8 -168 0
-1 -153 0
-2 -154 0
-3 -155 0
-4 -156 0
-5 -157 0
-6 -158 0
-7 -159 0
-8 -160 0
-1 -233 0
-2 -234 0
-3 -235 0
-4 -236 0
-5 -237 0
-6 -238 0
-7 -239 0
-8 -240 0
-1 -145 0
-2 -146 0
-3 -147 0
-4 -148 0
-5 -149 0
-6 -150 0
-7 -151 0
-8 -152 0
-9 -33 0
-10 -34 0
-11 -35 0
-12 -36 0
-13 -37 0
-14 -38 0
-15 -39 0
-16 -40 0
-9 -137 0
-10 -138 0
-11 -139 0
-12 -140 0
-13 -141 0
-14 -142 0
-15 -143 0
-16 -144 0
-9 -201 0
-10 -202 0
-11 -203 0
-12 -204 0
-13 -205 0
-14 -206 0
-15 -207 0
-16 -208 0
-9 -225 0
-10 -226 0
-11 -227 0
-12 -228 0
-13 -229 0
-14 -230 0
-15 -231 0
-16 -232 0
-9 -161 0
-10 -162 0
-11 -163 0
-12 -164 0
-13 -165 0
-14 -166 0
-15 -167 0
-16 -168 0
-9 -105 0
-10 -106 0
-11 -107 0
-12 -108 0
-13 -109 0
-14 -110 0
-15 -111 0
-16 -112 0
-9 -153 0
-10 -154 0
-11 -155 0
-12 -156 0
-13 -157 0
-14 -158 0
-15 -159 0
-16 -160 0
-9 -41 0
-10 -42 0
-11 -43 0
-12 -44 0
-13 -45 0
-14 -46 0
-15 -47 0
-16 -48 0
-9 -81 0
-10 -82 0
-11 -83 0
-12 -84 0
-13 -85 0
-14 -86 0
-15 -87 0
-16 -88 0
-9 -177 0
-10 -178 0
-11 -179 0
-12 -180 0
-13 -181 0
-14 -182 0
-15 -183 0
-16 -184 0
-9 -129 0
-10 -130 0
-11 -131 0
-12 -132 0
-13 -133 0
-14 -134 0
-15 -135 0
-16 -136 0
-9 -193 0
-10 -194 0
-11 -195 0
-12 -196 0
-13 -197 0
-14 -198 0
-15 -199 0
-16 -200 0
-9 -185 0
-10 -186 0
-11 -187 0
-12 -188 0
-13 -189 0
-14 -190 0
-15 -191 0
-16 -192 0
-9 -121 0
-10 -122 0
-11 -123 0
-12 -124 0
-13 -125 0
-14 -126 0
-15 -127 0
-16 -128 0
-17 -49 0
-18 -50 0
-19 -51 0
-20 -52 0
-21 -53 0
-22 -54 0
-23 -55 0
-24 -56 0
-17 -57 0
-18 -58 0
-19 -59 0
-20 -60 0
-21 -61 0
-22 -62 0
-23 -63 0
-24 -64 0
-17 -33 0
-18 -34 0
-19 -35 0
-20 -36 0
-21 -37 0
-22 -38 0
-23 -39 0
-24 -40 0
-17 -113 0
-18 -114 0
-19 -115 0
-20 -116 0
-21 -117 0
-22 -118 0
-23 -119 0
-24 -120 0
-17 -201 0
-18 -202 0
-19 -203 0
-20 -204 0
-21 -205 0
-22 -206 0
-23 -207 0
-24 -208 0
-17 -41 0
-18 -42 0
-19 -43 0
-20 -44 0
-21 -45 0
-22 -46 0
-23 -47 0
-24 -48 0
-17 -73 0
-18 -74 0
-19 -75 0
-20 -76 0
-21 -77 0
-22 -78 0
-23 -79 0
-24 -80 0
-17 -97 0
-18 -98 0
-19 -99 0
-20 -100 0
-21 -101 0
-22 -102 0
-23 -103 0
-24 -104 0
-17 -217 0
-18 -218 0
-19 -219 0
-20 -220 0
-21 -221 0
-22 -222 0
-23 -223 0
-24 -224 0
-17 -241 0
-18 -242 0
-19 -243 0
-20 -244 0
-21 -245 0
-22 -246 0
-23 -247 0
-24 -248 0
-17 -129 0
-18 -130 0
-19 -131 0
-20 -132 0
-21 -133 0
-22 -134 0
-23 -135 0
-24 -136 0
-17 -169 0
-18 -170 0
-19 -171 0
-20 -172 0
-21 -173 0
-22 -174 0
-23 -175 0
-24 -176 0
-17 -193 0
-18 -194 0
-19 -195 0
-20 -196 0
-21 -197 0
-22 -198 0
-23 -199 0
-24 -200 0
-17 -249 0
-18 -250 0
-19 -251 0
-20 -252 0
-21 -253 0
-22 -254 0
-23 -255 0
-24 -256 0
-17 -121 0
-18 -122 0
-19 -123 0
-20 -124 0
-21 -125 0
-22 -126 0
-23 -127 0
-24 -128 0
-25 -209 0
-26 -210 0
-27 -211 0
-28 -212 0
-29 -213 0
-30 -214 0
-31 -215 0
-32 -216 0
-25 -113 0
-26 -114 0
-27 -115 0
-28 -116 0
-29 -117 0
-30 -118 0
-31 -119 0
-32 -120 0
-25 -137 0
-26 -138 0
-27 -139 0
-28 -140 0
-29 -141 0
-30 -142 0
-31 -143 0
-32 -144 0
-25 -177 0
-26 -178 0
-27 -179 0
-28 -180 0
-29 -181 0
-30 -182 0
-31 -183 0
-32 -184 0
-25 -89 0
-26 -90 0
-27 -91 0
-28 -92 0
-29 -93 0
-30 -94 0
-31 -95 0
-32 -96 0
-25 -233 0
-26 -234 0
-27 -235 0
-28 -236 0
-29 -237 0
-30 -238 0
-31 -239 0
-32 -240 0
-25 -145 0
-26 -146 0
-27 -147 0
-28 -148 0
-29 -149 0
-30 -150 0
-31 -151 0
-32 -152 0
-25 -81 0
-26 -82 0
-27 -83 0
-28 -84 0
-29 -85 0
-30 -86 0
-31 -87 0
-32 -88 0
-25 -65 0
-26 -66 0
-27 -67 0
-28 -68 0
-29 -69 0
-30 -70 0
-31 -71 0
-32 -72 0
-25 -97 0
-26 -98 0
-27 -99 0
-28 -100 0
-29 -101 0
-30 -102 0
-31 -103 0
-32 -104 0
-25 -169 0
-26 -170 0
-27 -171 0
-28 -172 0
-29 -173 0
-30 -174 0
-31 -175 0
-32 -176 0
-25 -161 0
-26 -162 0
-27 -163 0
-28 -164 0
-29 -165 0
-30 -166 0
-31 -167 0
-32 -168 0
-25 -105 0
-26 -106 0
-27 -107 0
-28 -108 0
-29 -109 0
-30 -110 0
-31 -111 0
-32 -112 0
-25 -185 0
-26 -186 0
-27 -187 0
-28 -188 0
-29 -189 0
-30 -190 0
-31 -191 0
-32 -192 0
-33 -49 0
-34 -50 0
-35 -51 0
-36 -52 0
-37 -53 0
-38 -54 0
-39 -55 0
-40 -56 0
-33 -57 0
-34 -58 0
-35 -59 0
-36 -60 0
-37 -61 0
-38 -62 0
-39 -63 0
-40 -64 0
-33 -209 0
-34 -210 0
-35 -211 0
-36 -212 0
-37 -213 0
-38 -214 0
-39 -215 0
-40 -216 0
-33 -153 0
-34 -154 0
-35 -155 0
-36 -156 0
-37 -157 0
-38 -158 0
-39 -159 0
-40 -160 0
-33 -185 0
-34 -186 0
-35 -187 0
-36 -188 0
-37 -189 0
-38 -190 0
-39 -191 0
-40 -192 0
-33 -121 0
-34 -122 0
-35 -123 0
-36 -124 0
-37 -125 0
-38 -126 0
-39 -127 0
-40 -128 0
-33 -113 0
-34 -114 0
-35 -115 0
-36 -116 0
-37 -117 0
-38 -118 0
-39 -119 0
-40 -120 0
-33 -201 0
-34 -202 0
-35 -203 0
-36 -204 0
-37 -205 0
-38 -206 0
-39 -207 0
-40 -208 0
-33 -73 0
-34 -74 0
-35 -75 0
-36 -76 0
-37 -77 0
-38 -78 0
-39 -79 0
-40 -80 0
-33 -89 0
-34 -90 0
-35 -91 0
-36 -92 0
-37 -93 0
-38 -94 0
-39 -95 0
-40 -96 0
-33 -105 0
-34 -106 0
-35 -107 0
-36 -108 0
-37 -109 0
-38 -110 0
-39 -111 0
-40 -112 0
-33 -129 0
-34 -130 0
-35 -131 0
-36 -132 0
-37 -133 0
-38 -134 0
-39 -135 0
-40 -136 0
-41 -49 0
-42 -50 0
-43 -51 0
-44 -52 0
-45 -53 0
-46 -54 0
-47 -55 0
-48 -56 0
-41 -201 0
-42 -202 0
-43 -203 0
-44 -204 0
-45 -205 0
-46 -206 0
-47 -207 0
-48 -208 0
-41 -225 0
-42 -226 0
-43 -227 0
-44 -228 0
-45 -229 0
-46 -230 0
-47 -231 0
-48 -232 0
-41 -129 0
-42 -130 0
-43 -131 0
-44 -132 0
-45 -133 0
-46 -134 0
-47 -135 0
-48 -136 0
-41 -241 0
-42 -242 0
-43 -243 0
-44 -244 0
-45 -245 0
-46 -246 0
-47 -247 0
-48 -248 0
-41 -193 0
-42 -194 0
-43 -195 0
-44 -196 0
-45 -197 0
-46 -198 0
-47 -199 0
-48 -200 0
-41 -81 0
-42 -82 0
-43 -83 0
-44 -84 0
-45 -85 0
-46 -86 0
-47 -87 0
-48 -88 0
-41 -65 0
-42 -66 0
-43 -67 0
-44 -68 0
-45 -69 0
-46 -70 0
-47 -71 0
-48 -72 0
-41 -217 0
-42 -218 0
-43 -219 0
-44 -220 0
-45 -221 0
-46 -222 0
-47 -223 0
-48 -224 0
-41 -161 0
-42 -162 0
-43 -163 0
-44 -164 0
-45 -165 0
-46 -166 0
-47 -167 0
-48 -168 0
-41 -153 0
-42 -154 0
-43 -155 0
-44 -156 0
-45 -157 0
-46 -158 0
-47 -159 0
-48 -160 0
-41 -249 0
-42 -250 0
-43 -251 0
-44 -252 0
-45 -253 0
-46 -254 0
-47 -255 0
-48 -256 0
-41 -121 0
-42 -122 0
-43 -123 0
-44 -124 0
-45 -125 0
-46 -126 0
-47 -127 0
-48 -128 0
-49 -57 0
-50 -58 0
-51 -59 0
-52 -60 0
-53 -61 0
-54 -62 0
-55 -63 0
-56 -64 0
-49 -73 0
-50 -74 0
-51 -75 0
-52 -76 0
-53 -77 0
-54 -78 0
-55 -79 0
-56 -80 0
-49 -129 0
-50 -130 0
-51 -131 0
-52 -132 0
-53 -133 0
-54 -134 0
-55 -135 0
-56 -136 0
-49 -121 0
-50 -122 0
-51 -123 0
-52 -124 0
-53 -125 0
-54 -126 0
-55 -127 0
-56 -128 0
-49 -209 0
-50 -210 0
-51 -211 0
-52 -212 0
-53 -213 0
-54 -214 0
-55 -215 0
-56 -216 0
-49 -113 0
-50 -114 0
-51 -115 0
-52 -116 0
-53 -117 0
-54 -118 0
-55 -119 0
-56 -120 0
-49 -201 0
-50 -202 0
-51 -203 0
-52 -204 0
-53 -205 0
-54 -206 0
-55 -207 0
-56 -208 0
-49 -97 0
-50 -98 0
-51 -99 0
-52 -100 0
-53 -101 0
-54 -102 0
-55 -103 0
-56 -104 0
-49 -241 0
-50 -242 0
-51 -243 0
-52 -244 0
-53 -245 0
-54 -246 0
-55 -247 0
-56 -248 0
-49 -217 0
-50 -218 0
-51 -219 0
-52 -220 0
-53 -221 0
-54 -222 0
-55 -223 0
-56 -224 0
-49 -153 0
-50 -154 0
-51 -155 0
-52 -156 0
-53 -157 0
-54 -158 0
-55 -159 0
-56 -160 0
-49 -185 0
-50 -186 0
-51 -187 0
-52 -188 0
-53 -189 0
-54 -190 0
-55 -191 0
-56 -192 0
-57 -209 0
-58 -210 0
-59 -211 0
-60 -212 0
-61 -213 0
-62 -214 0
-63 -215 0
-64 -216 0
-57 -113 0
-58 -114 0
-59 -115 0
-60 -116 0
-61 -117 0
-62 -118 0
-63 -119 0
-64 -120 0
-57 -73 0
-58 -74 0
-59 -75 0
-60 -76 0
-61 -77 0
-62 -78 0
-63 -79 0
-64 -80 0
-57 -97 0
-58 -98 0
-59 -99 0
-60 -100 0
-61 -101 0
-62 -102 0
-63 -103 0
-64 -104 0
-57 -217 0
-58 -218 0
-59 -219 0
-60 -220 0
-61 -221 0
-62 -222 0
-63 -223 0
-64 -224 0
-57 -89 0
-58 -90 0
-59 -91 0
-60 -92 0
-61 -93 0
-62 -94 0
-63 -95 0
-64 -96 0
-57 -153 0
-58 -154 0
-59 -155 0
-60 -156 0
-61 -157 0
-62 -158 0
-63 -159 0
-64 -160 0
-57 -129 0
-58 -130 0
-59 -131 0
-60 -132 0
-61 -133 0
-62 -134 0
-63 -135 0
-64 -136 0
-57 -185 0
-58 -186 0
-59 -187 0
-60 -188 0
-61 -189 0
-62 -190 0
-63 -191 0
-64 -192 0
-57 -121 0
-58 -122 0
-59 -123 0
-60 -124 0
-61 -125 0
-62 -126 0
-63 -127 0
-64 -128 0
-57 -145 0
-58 -146 0
-59 -147 0
-60 -148 0
-61 -149 0
-62 -150 0
-63 -151 0
-64 -152 0
-65 -137 0
-66 -138 0
-67 -139 0
-68 -140 0
-69 -141 0
-70 -142 0
-71 -143 0
-72 -144 0
-65 -225 0
-66 -226 0
-67 -227 0
-68 -228 0
-69 -229 0
-70 -230 0
-71 -231 0
-72 -232 0
-65 -81 0
-66 -82 0
-67 -83 0
-68 -84 0
-69 -85 0
-70 -86 0
-71 -87 0
-72 -88 0
-65 -177 0
-66 -178 0
-67 -179 0
-68 -180 0
-69 -181 0
-70 -182 0
-71 -183 0
-72 -184 0
-65 -193 0
-66 -194 0
-67 -195 0
-68 -196 0
-69 -197 0
-70 -198 0
-71 -199 0
-72 -200 0
-65 -169 0
-66 -170 0
-67 -171 0
-68 -172 0
-69 -173 0
-70 -174 0
-71 -175 0
-72 -176 0
-65 -233 0
-66 -234 0
-67 -235 0
-68 -236 0
-69 -237 0
-70 -238 0
-71 -239 0
-72 -240 0
-65 -249 0
-66 -250 0
-67 -251 0
-68 -252 0
-69 -253 0
-70 -254 0
-71 -255 0
-72 -256 0
-65 -97 0
-66 -98 0
-67 -99 0
-68 -100 0
-69 -101 0
-70 -102 0
-71 -103 0
-72 -104 0
-65 -241 0
-66 -242 0
-67 -243 0
-68 -244 0
-69 -245 0
-70 -246 0
-71 -247 0
-72 -248 0
-65 -217 0
-66 -218 0
-67 -219 0
-68 -220 0
-69 -221 0
-70 -222 0
-71 -223 0
-72 -224 0
-65 -161 0
-66 -162 0
-67 -163 0
-68 -164 0
-69 -165 0
-70 -166 0
-71 -167 0
-72 -168 0
-65 -145 0
-66 -146 0
-67 -147 0
-68 -148 0
-69 -149 0
-70 -150 0
-71 -151 0
-72 -152 0
-73 -209 0
-74 -210 0
-75 -211 0
-76 -212 0
-77 -213 0
-78 -214 0
-79 -215 0
-80 -216 0
-73 -113 0
-74 -114 0
-75 -115 0
-76 -116 0
-77 -117 0
-78 -118 0
-79 -119 0
-80 -120 0
-73 -97 0
-74 -98 0
-75 -99 0
-76 -100 0
-77 -101 0
-78 -102 0
-79 -103 0
-80 -104 0
-73 -217 0
-74 -218 0
-75 -219 0
-76 -220 0
-77 -221 0
-78 -222 0
-79 -223 0
-80 -224 0
-73 -241 0
-74 -242 0
-75 -243 0
-76 -244 0
-77 -245 0
-78 -246 0
-79 -247 0
-80 -248 0
-73 -169 0
-74 -170 0
-75 -171 0
-76 -172 0
-77 -173 0
-78 -174 0
-79 -175 0
-80 -176 0
-73 -89 0
-74 -90 0
-75 -91 0
-76 -92 0
-77 -93 0
-78 -94 0
-79 -95 0
-80 -96 0
-73 -129 0
-74 -130 0
-75 -131 0
-76 -132 0
-77 -133 0
-78 -134 0
-79 -135 0
-80 -136 0
-73 -249 0
-74 -250 0
-75 -251 0
-76 -252 0
-77 -253 0
-78 -254 0
-79 -255 0
-80 -256 0
-73 -121 0
-74 -122 0
-75 -123 0
-76 -124 0
-77 -125 0
-78 -126 0
-79 -127 0
-80 -128 0
-73 -145 0
-74 -146 0
-75 -147 0
-76 -148 0
-77 -149 0
-78 -150 0
-79 -151 0
-80 -152 0
-81 -137 0
-82 -138 0
-83 -139 0
-84 -140 0
-85 -141 0
-86 -142 0
-87 -143 0
-88 -144 0
-81 -201 0
-82 -202 0
-83 -203 0
-84 -204 0
-85 -205 0
-86 -206 0
-87 -207 0
-88 -208 0
-81 -225 0
-82 -226 0
-83 -227 0
-84 -228 0
-85 -229 0
-86 -230 0
-87 -231 0
-88 -232 0
-81 -177 0
-82 -178 0
-83 -179 0
-84 -180 0
-85 -181 0
-86 -182 0
-87 -183 0
-88 -184 0
-81 -161 0
-82 -162 0
-83 -163 0
-84 -164 0
-85 -165 0
-86 -166 0
-87 -167 0
-88 -168 0
-81 -193 0
-82 -194 0
-83 -195 0
-84 -196 0
-85 -197 0
-86 -198 0
-87 -199 0
-88 -200 0
-81 -241 0
-82 -242 0
-83 -243 0
-84 -244 0
-85 -245 0
-86 -246 0
-87 -247 0
-88 -248 0
-81 -169 0
-82 -170 0
-83 -171 0
-84 -172 0
-85 -173 0
-86 -174 0
-87 -175 0
-88 -176 0
-81 -105 0
-82 -106 0
-83 -107 0
-84 -108 0
-85 -109 0
-86 -110 0
-87 -111 0
-88 -112 0
-81 -233 0
-82 -234 0
-83 -235 0
-84 -236 0
-85 -237 0
-86 -238 0
-87 -239 0
-88 -240 0
-81 -249 0
-82 -250 0
-83 -251 0
-84 -252 0
-85 -253 0
-86 -254 0
-87 -255 0
-88 -256 0
-89 -209 0
-90 -210 0
-91 -211 0
-92 -212 0
-93 -213 0
-94 -214 0
-95 -215 0
-96 -216 0
-89 -113 0
-90 -114 0
-91 -115 0
-92 -116 0
-93 -117 0
-94 -118 0
-95 -119 0
-96 -120 0
-89 -137 0
-90 -138 0
-91 -139 0
-92 -140 0
-93 -141 0
-94 -142 0
-95 -143 0
-96 -144 0
-89 -177 0
-90 -178 0
-91 -179 0
-92 -180 0
-93 -181 0
-94 -182 0
-95 -183 0
-96 -184 0
-89 -97 0
-90 -98 0
-91 -99 0
-92 -100 0
-93 -101 0
-94 -102 0
-95 -103 0
-96 -104 0
-89 -169 0
-90 -170 0
-91 -171 0
-92 -172 0
-93 -173 0
-94 -174 0
-95 -175 0
-96 -176 0
-89 -145 0
-90 -146 0
-91 -147 0
-92 -148 0
-93 -149 0
-94 -150 0
-95 -151 0
-96 -152 0
-89 -105 0
-90 -106 0
-91 -107 0
-92 -108 0
-93 -109 0
-94 -110 0
-95 -111 0
-96 -112 0
-89 -233 0
-90 -234 0
-91 -235 0
-92 -236 0
-93 -237 0
-94 -238 0
-95 -239 0
-96 -240 0
-89 -185 0
-90 -186 0
-91 -187 0
-92 -188 0
-93 -189 0
-94 -190 0
-95 -191 0
-96 -192 0
-97 -209 0
-98 -210 0
-99 -211 0
-100 -212 0
-101 -213 0
-102 -214 0
-103 -215 0
-104 -216 0
-97 -113 0
-98 -114 0
-99 -115 0
-100 -116 0
-101 -117 0
-102 -118 0
-103 -119 0
-104 -120 0
-97 -217 0
-98 -218 0
-99 -219 0
-100 -220 0
-101 -221 0
-102 -222 0
-103 -223 0
-104 -224 0
-97 -169 0
-98 -170 0
-99 -171 0
-100 -172 0
-101 -173 0
-102 -174 0
-103 -175 0
-104 -176 0
-97 -145 0
-98 -146 0
-99 -147 0
-100 -148 0
-101 -149 0
-102 -150 0
-103 -151 0
-104 -152 0
-97 -241 0
-98 -242 0
-99 -243 0
-100 -244 0
-101 -245 0
-102 -246 0
-103 -247 0
-104 -248 0
-97 -233 0
-98 -234 0
-99 -235 0
-100 -236 0
-101 -237 0
-102 -238 0
-103 -239 0
-104 -240 0
-97 -249 0
-98 -250 0
-99 -251 0
-100 -252 0
-101 -253 0
-102 -254 0
-103 -255 0
-104 -256 0
-105 -209 0
-106 -210 0
-107 -211 0
-108 -212 0
-109 -213 0
-110 -214 0
-111 -215 0
-112 -216 0
-105 -137 0
-106 -138 0
-107 -139 0
-108 -140 0
-109 -141 0
-110 -142 0
-111 -143 0
-112 -144 0
-105 -201 0
-106 -202 0
-107 -203 0
-108 -204 0
-109 -205 0
-110 -206 0
-111 -207 0
-112 -208 0
-105 -225 0
-106 -226 0
-107 -227 0
-108 -228 0
-109 -229 0
-110 -230 0
-111 -231 0
-112 -232 0
-105 -177 0
-106 -178 0
-107 -179 0
-108 -180 0
-109 -181 0
-110 -182 0
-111 -183 0
-112 -184 0
-105 -161 0
-106 -162 0
-107 -163 0
-108 -164 0
-109 -165 0
-110 -166 0
-111 -167 0
-112 -168 0
-105 -153 0
-106 -154 0
-107 -155 0
-108 -156 0
-109 -157 0
-110 -158 0
-111 -159 0
-112 -160 0
-105 -185 0
-106 -186 0
-107 -187 0
-108 -188 0
-109 -189 0
-110 -190 0
-111 -191 0
-112 -192 0
-105 -121 0
-106 -122 0
-107 -123 0
-108 -124 0
-109 -125 0
-110 -126 0
-111 -127 0
-112 -128 0
-113 -209 0
-114 -210 0
-115 -211 0
-116 -212 0
-117 -213 0
-118 -214 0
-119 -215 0
-120 -216 0
-113 -145 0
-114 -146 0
-115 -147 0
-116 -148 0
-117 -149 0
-118 -150 0
-119 -151 0
-120 -152 0
-113 -217 0
-114 -218 0
-115 -219 0
-116 -220 0
-117 -221 0
-118 -222 0
-119 -223 0
-120 -224 0
-113 -169 0
-114 -170 0
-115 -171 0
-116 -172 0
-117 -173 0
-118 -174 0
-119 -175 0
-120 -176 0
-113 -233 0
-114 -234 0
-115 -235 0
-116 -236 0
-117 -237 0
-118 -238 0
-119 -239 0
-120 -240 0
-113 -185 0
-114 -186 0
-115 -187 0
-116 -188 0
-117 -189 0
-118 -190 0
-119 -191 0
-120 -192 0
-121 -209 0
-122 -210 0
-123 -211 0
-124 -212 0
-125 -213 0
-126 -214 0
-127 -215 0
-128 -216 0
-121 -201 0
-122 -202 0
-123 -203 0
-124 -204 0
-125 -205 0
-126 -206 0
-127 -207 0
-128 -208 0
-121 -225 0
-122 -226 0
-123 -227 0
-124 -228 0
-125 -229 0
-126 -230 0
-127 -231 0
-128 -232 0
-121 -241 0
-122 -242 0
-123 -243 0
-124 -244 0
-125 -245 0
-126 -246 0
-127 -247 0
-128 -248 0
-121 -153 0
-122 -154 0
-123 -155 0
-124 -156 0
-125 -157 0
-126 -158 0
-127 -159 0
-128 -160 0
-121 -129 0
-122 -130 0
-123 -131 0
-124 -132 0
-125 -133 0
-126 -134 0
-127 -135 0
-128 -136 0
-121 -185 0
-122 -186 0
-123 -187 0
-124 -188 0
-125 -189 0
-126 -190 0
-127 -191 0
-128 -192 0
-129 -201 0
-130 -202 0
-131 -203 0
-132 -204 0
-133 -205 0
-134 -206 0
-135 -207 0
-136 -208 0
-129 -225 0
-130 -226 0
-131 -227 0
-132 -228 0
-133 -229 0
-134 -230 0
-135 -231 0
-136 -232 0
-129 -241 0
-130 -242 0
-131 -243 0
-132 -244 0
-133 -245 0
-134 -246 0
-135 -247 0
-136 -248 0
-129 -217 0
-130 -218 0
-131 -219 0
-132 -220 0
-133 -221 0
-134 -222 0
-135 -223 0
-136 -224 0
-129 -153 0
-130 -154 0
-131 -155 0
-132 -156 0
-133 -157 0
-134 -158 0
-135 -159 0
-136 -160 0
-129 -193 0
-130 -194 0
-131 -195 0
-132 -196 0
-133 -197 0
-134 -198 0
-135 -199 0
-136 -200 0
-129 -249 0
-130 -250 0
-131 -251 0
-132 -252 0
-133 -253 0
-134 -254 0
-135 -255 0
-136 -256 0
-137 -209 0
-138 -210 0
-139 -211 0
-140 -212 0
-141 -213 0
-142 -214 0
-143 -215 0
-144 -216 0
-137 -177 0
-138 -178 0
-139 -179 0
-140 -180 0
-141 -181 0
-142 -182 0
-143 -183 0
-144 -184 0
-137 -161 0
-138 -162 0
-139 -163 0
-140 -164 0
-141 -165 0
-142 -166 0
-143 -167 0
-144 -168 0
-137 -225 0
-138 -226 0
-139 -227 0
-140 -228 0
-141 -229 0
-142 -230 0
-143 -231 0
-144 -232 0
-137 -153 0
-138 -154 0
-139 -155 0
-140 -156 0
-141 -157 0
-142 -158 0
-143 -159 0
-144 -160 0
-137 -233 0
-138 -234 0
-139 -235 0
-140 -236 0
-141 -237 0
-142 -238 0
-143 -239 0
-144 -240 0
-137 -185 0
-138 -186 0
-139 -187 0
-140 -188 0
-141 -189 0
-142 -190 0
-143 -191 0
-144 -192 0
-137 -145 0
-138 -146 0
-139 -147 0
-140 -148 0
-141 -149 0
-142 -150 0
-143 -151 0
-144 -152 0
-145 -209 0
-146 -210 0
-147 -211 0
-148 -212 0
-149 -213 0
-150 -214 0
-151 -215 0
-152 -216 0
-145 -177 0
-146 -178 0
-147 -179 0
-148 -180 0
-149 -181 0
-150 -182 0
-151 -183 0
-152 -184 0
-145 -217 0
-146 -218 0
-147 -219 0
-148 -220 0
-149 -221 0
-150 -222 0
-151 -223 0
-152 -224 0
-145 -169 0
-146 -170 0
-147 -171 0
-148 -172 0
-149 -173 0
-150 -174 0
-151 -175 0
-152 -176 0
-145 -233 0
-146 -234 0
-147 -235 0
-148 -236 0
-149 -237 0
-150 -238 0
-151 -239 0
-152 -240 0
-145 -249 0
-146 -250 0
-147 -251 0
-148 -252 0
-149 -253 0
-150 -254 0
-151 -255 0
-152 -256 0
-153 -209 0
-154 -210 0
-155 -211 0
-156 -212 0
-157 -213 0
-158 -214 0
-159 -215 0
-160 -216 0
-153 -201 0
-154 -202 0
-155 -203 0
-156 -204 0
-157 -205 0
-158 -206 0
-159 -207 0
-160 -208 0
-153 -225 0
-154 -226 0
-155 -227 0
-156 -228 0
-157 -229 0
-158 -230 0
-159 -231 0
-160 -232 0
-153 -161 0
-154 -162 0
-155 -163 0
-156 -164 0
-157 -165 0
-158 -166 0
-159 -167 0
-160 -168 0
-153 -185 0
-154 -186 0
-155 -187 0
-156 -188 0
-157 -189 0
-158 -190 0
-159 -191 0
-160 -192 0
-161 -201 0
-162 -202 0
-163 -203 0
-164 -204 0
-165 -205 0
-166 -206 0
-167 -207 0
-168 -208 0
-161 -225 0
-162 -226 0
-163 -227 0
-164 -228 0
-165 -229 0
-166 -230 0
-167 -231 0
-168 -232 0
-161 -177 0
-162 -178 0
-163 -179 0
-164 -180 0
-165 -181 0
-166 -182 0
-167 -183 0
-168 -184 0
-161 -193 0
-162 -194 0
-163 -195 0
-164 -196 0
-165 -197 0
-166 -198 0
-167 -199 0
-168 -200 0
-161 -233 0
-162 -234 0
-163 -235 0
-164 -236 0
-165 -237 0
-166 -238 0
-167 -239 0
-168 -240 0
-161 -185 0
-162 -186 0
-163 -187 0
-164 -188 0
-165 -189 0
-166 -190 0
-167 -191 0
-168 -192 0
-169 -177 0
-170 -178 0
-171 -179 0
-172 -180 0
-173 -181 0
-174 -182 0
-175 -183 0
-176 -184 0
-169 -241 0
-170 -242 0
-171 -243 0
-172 -244 0
-173 -245 0
-174 -246 0
-175 -247 0
-176 -248 0
-169 -217 0
-170 -218 0
-171 -219 0
-172 -220 0
-173 -221 0
-174 -222 0
-175 -223 0
-176 -224 0
-169 -233 0
-170 -234 0
-171 -235 0
-172 -236 0
-173 -237 0
-174 -238 0
-175 -239 0
-176 -240 0
-169 -249 0
-170 -250 0
-171 -251 0
-172 -252 0
-173 -253 0
-174 -254 0
-175 -255 0
-176 -256 0
-169 -193 0
-170 -194 0
-171 -195 0
-172 -196 0
-173 -197 0
-174 -198 0
-175 -199 0
-176 -200 0
-177 -225 0
-178 -226 0
-179 -227 0
-180 -228 0
-181 -229 0
-182 -230 0
-183 -231 0
-184 -232 0
-177 -233 0
-178 -234 0
-179 -235 0
-180 -236 0
-181 -237 0
-182 -238 0
-183 -239 0
-184 -240 0
-177 -193 0
-178 -194 0
-179 -195 0
-180 -196 0
-181 -197 0
-182 -198 0
-183 -199 0
-184 -200 0
-177 -249 0
-178 -250 0
-179 -251 0
-180 -252 0
-181 -253 0
-182 -254 0
-183 -255 0
-184 -256 0
-185 -209 0
-186 -210 0
-187 -211 0
-188 -212 0
-189 -213 0
-190 -214 0
-191 -215 0
-192 -216 0
-185 -201 0
-186 -202 0
-187 -203 0
-188 -204 0
-189 -205 0
-190 -206 0
-191 -207 0
-192 -208 0
-193 -201 0
-194 -202 0
-195 -203 0
-196 -204 0
-197 -205 0
-198 -206 0
-199 -207 0
-200 -208 0
-193 -225 0
-194 -226 0
-195 -227 0
-196 -228 0
-197 -229 0
-198 -230 0
-199 -231 0
-200 -232 0
-193 -241 0
-194 -242 0
-195 -243 0
-196 -244 0
-197 -245 0
-198 -246 0
-199 -247 0
-200 -248 0
-193 -217 0
-194 -218 0
-195 -219 0
-196 -220 0
-197 -221 0
-198 -222 0
-199 -223 0
-200 -224 0
-193 -249 0
-194 -250 0
-195 -251 0
-196 -252 0
-197 -253 0
-198 -254 0
-199 -255 0
-200 -256 0
-193 -233 0
-194 -234 0
-195 -235 0
-196 -236 0
-197 -237 0
-198 -238 0
-199 -239 0
-200 -240 0
-201 -225 0
-202 -226 0
-203 -227 0
-204 -228 0
-205 -229 0
-206 -230 0
-207 -231 0
-208 -232 0
-201 -241 0
-202 -242 0
-203 -243 0
-204 -244 0
-205 -245 0
-206 -246 0
-207 -247 0
-208 -248 0
-217 -241 0
-218 -242 0
-219 -243 0
-220 -244 0
-221 -245 0
-222 -246 0
-223 -247 0
-224 -248 0
-217 -249 0
-218 -250 0
-219 -251 0
-220 -252 0
-221 -253 0
-222 -254 0
-223 -255 0
-224 -256 0
-217 -233 0
-218 -234 0
-219 -235 0
-220 -236 0
-221 -237 0
-222 -238 0
-223 -239 0
-224 -240 0
-225 -241 0
-226 -242 0
-227 -243 0
-228 -244 0
-229 -245 0
-230 -246 0
-231 -247 0
-232 -248 0
-225 -249 0
-226 -250 0
-227 -251 0
-228 -252 0
-229 -253 0
-230 -254 0
-231 -255 0
-232 -256 0
-233 -249 0
-234 -250 0
-235 -251 0
-236 -252 0
-237 -253 0
-238 -254 0
-239 -255 0
-240 -256 0
-241 -249 0
-242 -250 0
-243 -251 0
-244 -252 0
-245 -253 0
-246 -254 0
-247 -255 0
-248 -256 0
1 2 3 4 5 6 7 8 0
9 10 11 12 13 14 15 16 0
17 18 19 20 21 22 23 24 0
25 26 27 28 29 30 31 32 0
33 34 35 36 37 38 39 40 0
41 42 43 44 45 46 47 48 0
49 50 51 52 53 54 55 56 0
57 58 59 60 61 62 63 64 0
65 66 67 68 69 70 71 72 0
73 74 75 76 77 78 79 80 0
81 82 83 84 85 86 87 88 0
89 90 91 92 93 94 95 96 0
97 98 99 100 101 102 103 104 0
105 106 107 108 109 110 111 112 0
113 114 115 116 117 118 119 120 0
121 122 123 124 125 126 127 128 0
129 130 131 132 133 134 135 136 0
137 138 139 140 141 142 143 144 0
145 146 147 148 149 150 151 152 0
153 154 155 156 157 158 159 160 0
161 162 163 164 165 166 167 168 0
169 170 171 172 173 174 175 176 0
177 178 179 180 181 182 183 184 0
185 186 187 188 189 190 191 192 0
193 194 195 196 197 198 199 200 0
201 202 203 204 205 206 207 208 0
209 210 211 212 213 214 215 216 0
217 218 219 220 221 222 223 224 0
225 226 227 228 229 230 231 232 0
233 234 235 236 237 238 239 240 0
241 242 243 244 245 246 247 248 0
249 250 251 252 253 254 255 256 0
